100
[20,21,22,23,24,25,26,27,28,29,30,31,32,33,34,35,36,37,38,39,40,41,42,43,44,45,46,47,48,49,50,51,52,53,54,55,56,57,58,59,60,61,62,63,64,65,66,67,68,69,70,71,72,73,74,75,76,77,78,79,80]
[5,8,8,14,7,4,7,6,9,6,10,19,7,13,11,10,9,8,6,4,7,8,7,4,11,9,7,10,10,9,10,7,7,12,6,7,8,6,12,4,7,5,9,6,10,5,11,9,11,12,7,7,7,7,6,7,14,7,6,8,7]
